sets/C/cp-n25-k4.vrp
NAME : (null)
COMMENT : (null)
TYPE : CVRP
DIMENSION : 25
EDGE_WEIGHT_TYPE : EUC_2D
CAPACITY : 67
NODE_COORD_SECTION
 1  11  24
 2  24   0
 3   2   0
 4  22   8
 5  24  11
 6   9   8
 7   3   5
 8  10  18
 9  12  11
10   6  24
11  24   7
12  18   4
13   0   3
14  15  24
15  21   0
16  17   6
17  16   0
18  21  13
19  17  12
20  11  11
21   8  14
22   5  19
23   5  13
24  20   2
25  11  18
DEMAND_SECTION
 1   0
 2  14
 3   1
 4  11
 5  18
 6  14
 7  18
 8   1
 9  24
10  13
11   5
12  17
13   3
14  10
15   2
16   8
17   5
18  15
19   7
20   8
21  19
22   4
23   1
24   5
25   5
DEPOT_SECTION
 1
-1
EOF