sets/C/cp-n25-k4.opt
Route #1: 4 16 1 15
Route #2: 2 20 6 8 9
Route #3: 17 14 12 10 3
Route #4: 21 13 18 11
Route #5: 5 19 7
cost 155
